36 59 8563
59 16 10880
16 63 14689
63 21 32196
21 3 17216
3 30 21977
30 25 1249
25 41 5278
41 64 28668
64 67 14572
67 38 15200
38 7 28523
7 43 52950
43 46 69394
46 34 36286
34 55 20835
55 26 61621
26 66 57991
66 11 13370
11 6 47990
6 23 16175
23 49 4353
49 19 8895
19 60 15596
60 29 6419
29 5 9526
5 40 3130
40 56 3489
56 32 1427
32 12 4813
12 42 4831
42 61 10110
61 24 5437
24 1 15310
1 54 18207
54 47 18520
47 13 9114
13 65 18316
65 20 13332
20 4 4440
4 48 7248
48 2 7938
2 45 15587
45 27 8214
27 17 1445
17 9 5356
9 58 1777
58 15 6904
15 8 6874
8 68 34471
68 35 19070
35 51 8926
51 39 11004
39 62 8740
62 37 30446
37 53 6554
53 44 84806
44 14 62420
14 10 62052
10 18 28652
18 57 27906
57 33 88918
33 52 101509
52 22 46274
22 31 39447
31 28 65445
28 50 10810
50 36 24707
